NUM_TRAINS = 4;
NUM_ACTIONS = 16;
NUM_DRIVERS = 1;

D = [1,1,1,1,1,30,1,1,30,1,1,30,1,1,30,1];
TA = [1,2,3,4,3,3,3,4,4,4,1,1,1,2,2,2];

NUM_PRECEDENCE_CONSTRAINTS = 17;
preceding = [1,2,3,4,5,5,6,7,8,8,9,10,11,11,12,14,15];
anteceding = [11,14,5,8,6,7,7,11,9,16,10,14,12,13,13,15,16];

NUM_SWITCH_CONSTRAINTS = 6;
before_switch = [1,2,3,7,8,10];
after_switch = [2,3,4,10,14,16];

NUM_TURN_CONSTRAINTS = 0;
before_turn = [];
after_turn = [];

MAX_WALKING = 10;
walk_times = [|7,7,7,7,2,4,4,3,3,3,0,4,4,1,3,3,
|8,8,8,8,1,5,5,2,4,4,1,5,5,0,4,4,
|9,9,9,9,0,6,6,1,5,5,2,6,6,1,5,5,
|10,10,10,10,1,7,7,0,6,6,3,7,7,2,6,6,
|9,9,9,9,6,0,0,7,1,1,4,0,0,5,1,1,
|9,9,9,9,6,0,0,7,1,1,4,0,0,5,1,1,
|9,9,9,9,0,6,6,1,5,5,2,6,6,1,5,5,
|10,10,10,10,5,1,1,6,0,0,3,1,1,4,0,0,
|10,10,10,10,5,1,1,6,0,0,3,1,1,4,0,0,
|9,9,9,9,0,6,6,1,5,5,2,6,6,1,5,5,
|9,9,9,9,6,0,0,7,1,1,4,0,0,5,1,1,
|9,9,9,9,6,0,0,7,1,1,4,0,0,5,1,1,
|7,7,7,7,2,4,4,3,3,3,0,4,4,1,3,3,
|10,10,10,10,5,1,1,6,0,0,3,1,1,4,0,0,
|10,10,10,10,5,1,1,6,0,0,3,1,1,4,0,0,
|10,10,10,10,1,7,7,0,6,6,3,7,7,2,6,6|];